\ Model qkp01
\ LP format - for model browsing. Use MPS format to capture full model detail.
Maximize
  27 x_2 + 38 x_3 + x_5 + 32 x_9 + 39 x_10 + 6 x_12 + 7 x_14 + 17 x_16
   + 5 x_22 + 38 x_24 + 2 x_29 + 47 x_32 + 44 x_35 + 30 x_36 + 37 x_42
   + 17 x_45 + 41 x_61 + 44 x_62 + 25 x_63 + 24 x_64 + 30 x_69 + 50 x_73
   + 2 x_78 + 48 x_86 + 30 x_88 + 19 x_90 + 18 x_91 + 20 x_99 + 31 x_100
   + [ 6 x_1 * x_5 + 96 x_1 * x_11 + 52 x_1 * x_12 + 66 x_1 * x_13
   + 56 x_1 * x_26 + 6 x_1 * x_29 + 26 x_1 * x_30 + 44 x_1 * x_31
   + 90 x_1 * x_32 + 64 x_1 * x_36 + 28 x_1 * x_39 + 28 x_1 * x_42
   + 48 x_1 * x_55 + 62 x_1 * x_56 + 80 x_1 * x_57 + 36 x_1 * x_62
   + 90 x_1 * x_63 + 58 x_1 * x_64 + 22 x_1 * x_66 + 92 x_1 * x_67
   + 60 x_1 * x_74 + 56 x_1 * x_77 + 96 x_1 * x_79 + 56 x_1 * x_82
   + 66 x_1 * x_96 + 38 x_1 * x_98 + 22 x_2 * x_3 + 20 x_2 * x_4
   + 18 x_2 * x_11 + 28 x_2 * x_14 + 72 x_2 * x_18 + 66 x_2 * x_27
   + 38 x_2 * x_28 + 82 x_2 * x_30 + 46 x_2 * x_31 + 8 x_2 * x_36
   + 66 x_2 * x_37 + 10 x_2 * x_38 + 18 x_2 * x_40 + 74 x_2 * x_41
   + 62 x_2 * x_47 + 52 x_2 * x_55 + 38 x_2 * x_64 + 68 x_2 * x_69
   + 98 x_2 * x_70 + 44 x_2 * x_82 + 6 x_2 * x_84 + 44 x_2 * x_87
   + 48 x_2 * x_90 + 78 x_2 * x_96 + 32 x_3 * x_6 + 68 x_3 * x_7
   + 14 x_3 * x_8 + 32 x_3 * x_9 + 76 x_3 * x_10 + 92 x_3 * x_11
   + 88 x_3 * x_14 + 56 x_3 * x_17 + 36 x_3 * x_28 + 10 x_3 * x_30
   + 38 x_3 * x_39 + 90 x_3 * x_40 + 80 x_3 * x_43 + 64 x_3 * x_44
   + 88 x_3 * x_46 + 6 x_3 * x_51 + 34 x_3 * x_55 + 68 x_3 * x_61
   + 84 x_3 * x_62 + 44 x_3 * x_65 + 86 x_3 * x_72 + 46 x_3 * x_74
   + 28 x_3 * x_75 + 62 x_3 * x_79 + 98 x_3 * x_80 + 76 x_3 * x_82
   + 64 x_3 * x_85 + 30 x_3 * x_86 + 68 x_3 * x_89 + 74 x_3 * x_92
   + 36 x_3 * x_95 + 4 x_3 * x_97 + 24 x_3 * x_98 + 4 x_3 * x_100
   + 30 x_4 * x_6 + 80 x_4 * x_7 + 4 x_4 * x_9 + 80 x_4 * x_14
   + 54 x_4 * x_19 + 28 x_4 * x_24 + 26 x_4 * x_25 + 52 x_4 * x_29
   + 10 x_4 * x_30 + 56 x_4 * x_32 + 42 x_4 * x_34 + 82 x_4 * x_37
   + 70 x_4 * x_39 + 66 x_4 * x_41 + 34 x_4 * x_44 + 44 x_4 * x_51
   + 48 x_4 * x_58 + 18 x_4 * x_63 + 36 x_4 * x_70 + 26 x_4 * x_75
   + 74 x_4 * x_77 + 32 x_4 * x_83 + 2 x_4 * x_90 + 76 x_4 * x_96
   + 18 x_4 * x_97 + 38 x_4 * x_98 + 26 x_5 * x_6 + 6 x_5 * x_8
   + 12 x_5 * x_16 + 16 x_5 * x_18 + 40 x_5 * x_19 + 62 x_5 * x_22
   + 40 x_5 * x_31 + 58 x_5 * x_32 + 100 x_5 * x_34 + 96 x_5 * x_40
   + 38 x_5 * x_41 + 26 x_5 * x_42 + 72 x_5 * x_47 + 28 x_5 * x_58
   + 82 x_5 * x_65 + 68 x_5 * x_78 + 100 x_5 * x_80 + 36 x_5 * x_82
   + 78 x_5 * x_87 + 40 x_5 * x_92 + 6 x_6 * x_7 + 32 x_6 * x_8
   + 56 x_6 * x_10 + 38 x_6 * x_11 + 56 x_6 * x_15 + 92 x_6 * x_16
   + 88 x_6 * x_28 + 34 x_6 * x_33 + 84 x_6 * x_34 + 76 x_6 * x_35
   + 50 x_6 * x_39 + 76 x_6 * x_40 + 40 x_6 * x_41 + 2 x_6 * x_42
   + 72 x_6 * x_43 + 62 x_6 * x_44 + 58 x_6 * x_45 + 80 x_6 * x_51
   + 12 x_6 * x_55 + 94 x_6 * x_67 + 36 x_6 * x_72 + 20 x_6 * x_75
   + 68 x_6 * x_76 + 42 x_6 * x_80 + 70 x_6 * x_82 + 70 x_6 * x_83
   + 40 x_6 * x_88 + 42 x_6 * x_89 + 14 x_6 * x_92 + 36 x_6 * x_97
   + 72 x_6 * x_98 + 46 x_6 * x_99 + 2 x_7 * x_13 + 40 x_7 * x_14
   + 70 x_7 * x_18 + 60 x_7 * x_20 + 10 x_7 * x_22 + 88 x_7 * x_23
   + 68 x_7 * x_26 + 54 x_7 * x_31 + 34 x_7 * x_37 + 30 x_7 * x_39
   + 16 x_7 * x_40 + 16 x_7 * x_41 + 72 x_7 * x_52 + 10 x_7 * x_54
   + 64 x_7 * x_59 + 60 x_7 * x_64 + 20 x_7 * x_70 + 64 x_7 * x_75
   + 36 x_7 * x_87 + 92 x_7 * x_92 + 18 x_7 * x_94 + 44 x_7 * x_96
   + 54 x_7 * x_99 + 98 x_8 * x_11 + 58 x_8 * x_14 + 28 x_8 * x_18
   + 30 x_8 * x_21 + 62 x_8 * x_23 + 56 x_8 * x_24 + 70 x_8 * x_31
   + 60 x_8 * x_32 + 36 x_8 * x_41 + 18 x_8 * x_44 + 18 x_8 * x_47
   + 86 x_8 * x_49 + 62 x_8 * x_52 + 2 x_8 * x_53 + 60 x_8 * x_56
   + 92 x_8 * x_58 + 36 x_8 * x_62 + 28 x_8 * x_65 + 34 x_8 * x_67
   + 20 x_8 * x_69 + 50 x_8 * x_74 + 6 x_8 * x_78 + 44 x_8 * x_81
   + 68 x_8 * x_87 + 74 x_8 * x_89 + 16 x_8 * x_91 + 86 x_8 * x_93
   + 28 x_8 * x_100 + 42 x_9 * x_11 + 62 x_9 * x_14 + 84 x_9 * x_15
   + 64 x_9 * x_19 + 32 x_9 * x_21 + 12 x_9 * x_26 + 60 x_9 * x_29
   + 82 x_9 * x_31 + 56 x_9 * x_36 + 54 x_9 * x_58 + 36 x_9 * x_64
   + 4 x_9 * x_70 + 12 x_9 * x_71 + 46 x_9 * x_82 + 6 x_9 * x_84
   + 68 x_9 * x_87 + 54 x_9 * x_90 + 44 x_9 * x_92 + 26 x_9 * x_98
   + 10 x_9 * x_99 + 12 x_9 * x_100 + 26 x_10 * x_12 + 76 x_10 * x_18
   + 80 x_10 * x_22 + 18 x_10 * x_24 + 56 x_10 * x_30 + 6 x_10 * x_31
   + 54 x_10 * x_40 + 14 x_10 * x_45 + 98 x_10 * x_47 + 96 x_10 * x_52
   + 24 x_10 * x_56 + 34 x_10 * x_60 + 6 x_10 * x_65 + 56 x_10 * x_69
   + 100 x_10 * x_71 + 48 x_10 * x_75 + 2 x_10 * x_76 + 62 x_10 * x_80
   + 48 x_10 * x_86 + 32 x_10 * x_88 + 12 x_10 * x_89 + 60 x_10 * x_90
   + 84 x_10 * x_91 + 98 x_10 * x_98 + 40 x_10 * x_99 + 86 x_11 * x_12
   + 48 x_11 * x_14 + 12 x_11 * x_20 + 38 x_11 * x_24 + 8 x_11 * x_25
   + 70 x_11 * x_29 + 78 x_11 * x_32 + 66 x_11 * x_35 + 34 x_11 * x_40
   + 86 x_11 * x_41 + 24 x_11 * x_43 + 40 x_11 * x_46 + 40 x_11 * x_47
   + 40 x_11 * x_54 + 78 x_11 * x_55 + 48 x_11 * x_58 + 16 x_11 * x_65
   + 58 x_11 * x_67 + 16 x_11 * x_69 + 28 x_11 * x_82 + 98 x_11 * x_84
   + 90 x_11 * x_87 + 52 x_11 * x_89 + 74 x_11 * x_91 + 84 x_12 * x_16
   + 98 x_12 * x_18 + 10 x_12 * x_19 + 80 x_12 * x_22 + 64 x_12 * x_23
   + 76 x_12 * x_32 + 84 x_12 * x_37 + 90 x_12 * x_40 + 12 x_12 * x_41
   + 54 x_12 * x_45 + 68 x_12 * x_49 + 70 x_12 * x_54 + 12 x_12 * x_58
   + 52 x_12 * x_66 + 96 x_12 * x_67 + 10 x_12 * x_71 + 22 x_12 * x_77
   + 36 x_12 * x_81 + 86 x_12 * x_90 + 26 x_12 * x_91 + 24 x_13 * x_19
   + 74 x_13 * x_22 + 72 x_13 * x_23 + 36 x_13 * x_24 + 24 x_13 * x_29
   + 12 x_13 * x_32 + 2 x_13 * x_34 + 50 x_13 * x_35 + 38 x_13 * x_36
   + 82 x_13 * x_40 + 14 x_13 * x_41 + 64 x_13 * x_44 + 20 x_13 * x_45
   + 70 x_13 * x_51 + 20 x_13 * x_52 + 58 x_13 * x_53 + 100 x_13 * x_58
   + 30 x_13 * x_60 + 66 x_13 * x_61 + 30 x_13 * x_65 + 48 x_13 * x_66
   + 42 x_13 * x_69 + 56 x_13 * x_71 + 52 x_13 * x_73 + 30 x_13 * x_74
   + 12 x_13 * x_77 + 16 x_13 * x_85 + 36 x_13 * x_87 + 78 x_13 * x_90
   + 30 x_13 * x_91 + 62 x_13 * x_93 + 2 x_13 * x_94 + 80 x_13 * x_99
   + 54 x_14 * x_16 + 90 x_14 * x_17 + 92 x_14 * x_18 + 94 x_14 * x_19
   + 32 x_14 * x_20 + 74 x_14 * x_24 + 42 x_14 * x_26 + 96 x_14 * x_27
   + 8 x_14 * x_34 + 58 x_14 * x_36 + 66 x_14 * x_38 + 6 x_14 * x_43
   + 60 x_14 * x_46 + 44 x_14 * x_47 + 86 x_14 * x_52 + 50 x_14 * x_59
   + 72 x_14 * x_62 + 62 x_14 * x_65 + 94 x_14 * x_69 + 78 x_14 * x_70
   + 40 x_14 * x_72 + 88 x_14 * x_74 + 88 x_14 * x_81 + 26 x_14 * x_91
   + 58 x_14 * x_96 + 74 x_15 * x_20 + 28 x_15 * x_21 + 88 x_15 * x_27
   + 88 x_15 * x_43 + 40 x_15 * x_47 + 22 x_15 * x_58 + 8 x_15 * x_66
   + 34 x_15 * x_67 + 46 x_15 * x_68 + 66 x_15 * x_70 + 14 x_15 * x_75
   + 28 x_15 * x_78 + 60 x_15 * x_83 + 98 x_15 * x_86 + 68 x_15 * x_87
   + 84 x_15 * x_88 + 50 x_15 * x_90 + 20 x_15 * x_95 + 34 x_15 * x_99
   + 34 x_16 * x_20 + 68 x_16 * x_21 + 74 x_16 * x_27 + 80 x_16 * x_29
   + 68 x_16 * x_30 + 90 x_16 * x_31 + 50 x_16 * x_39 + 14 x_16 * x_42
   + 14 x_16 * x_45 + 90 x_16 * x_47 + 38 x_16 * x_53 + 44 x_16 * x_55
   + 28 x_16 * x_56 + 82 x_16 * x_58 + 42 x_16 * x_60 + 58 x_16 * x_69
   + 28 x_16 * x_75 + 22 x_16 * x_80 + 84 x_16 * x_83 + 56 x_16 * x_91
   + 64 x_16 * x_94 + 26 x_16 * x_96 + 72 x_16 * x_98 + 6 x_17 * x_29
   + 28 x_17 * x_32 + 68 x_17 * x_34 + 98 x_17 * x_37 + 54 x_17 * x_43
   + 70 x_17 * x_50 + 28 x_17 * x_54 + 40 x_17 * x_67 + 34 x_17 * x_82
   + 76 x_17 * x_92 + 72 x_17 * x_94 + 96 x_17 * x_97 + 6 x_17 * x_98
   + 12 x_18 * x_27 + 20 x_18 * x_28 + 30 x_18 * x_29 + 12 x_18 * x_32
   + 40 x_18 * x_34 + 84 x_18 * x_35 + 18 x_18 * x_40 + 82 x_18 * x_56
   + 8 x_18 * x_57 + 96 x_18 * x_61 + 34 x_18 * x_62 + 74 x_18 * x_64
   + 30 x_18 * x_66 + 54 x_18 * x_69 + 58 x_18 * x_70 + 66 x_18 * x_72
   + 52 x_18 * x_77 + 74 x_18 * x_80 + 6 x_18 * x_84 + 4 x_18 * x_93
   + 14 x_19 * x_35 + 34 x_19 * x_38 + 76 x_19 * x_42 + 60 x_19 * x_43
   + 64 x_19 * x_50 + 48 x_19 * x_51 + 58 x_19 * x_52 + 82 x_19 * x_56
   + 40 x_19 * x_60 + 94 x_19 * x_62 + 54 x_19 * x_65 + 90 x_19 * x_71
   + 4 x_19 * x_74 + 32 x_19 * x_75 + 86 x_19 * x_77 + 86 x_19 * x_82
   + 80 x_19 * x_84 + 70 x_19 * x_87 + 64 x_19 * x_92 + 62 x_19 * x_95
   + 54 x_20 * x_24 + 92 x_20 * x_35 + 18 x_20 * x_40 + 34 x_20 * x_41
   + 60 x_20 * x_48 + 64 x_20 * x_49 + 60 x_20 * x_51 + 12 x_20 * x_53
   + 22 x_20 * x_54 + 86 x_20 * x_58 + 66 x_20 * x_60 + 16 x_20 * x_62
   + 64 x_20 * x_65 + 46 x_20 * x_74 + 100 x_20 * x_79 + 20 x_20 * x_81
   + 28 x_20 * x_88 + 54 x_20 * x_92 + 50 x_20 * x_96 + 2 x_20 * x_100
   + 70 x_21 * x_24 + 24 x_21 * x_26 + 96 x_21 * x_28 + 40 x_21 * x_39
   + 56 x_21 * x_46 + 76 x_21 * x_53 + 96 x_21 * x_59 + 92 x_21 * x_72
   + 96 x_21 * x_78 + 38 x_21 * x_82 + 62 x_21 * x_83 + 92 x_21 * x_86
   + 58 x_21 * x_95 + 96 x_21 * x_97 + 18 x_22 * x_24 + 22 x_22 * x_30
   + 50 x_22 * x_36 + 2 x_22 * x_41 + 56 x_22 * x_42 + 54 x_22 * x_44
   + 74 x_22 * x_47 + 76 x_22 * x_48 + 18 x_22 * x_49 + 80 x_22 * x_70
   + 72 x_22 * x_76 + 14 x_22 * x_85 + 24 x_22 * x_89 + 20 x_22 * x_93
   + 12 x_22 * x_96 + 42 x_22 * x_97 + 52 x_23 * x_26 + 62 x_23 * x_27
   + 86 x_23 * x_34 + 84 x_23 * x_36 + 74 x_23 * x_42 + 16 x_23 * x_44
   + 48 x_23 * x_45 + 46 x_23 * x_50 + 58 x_23 * x_52 + 52 x_23 * x_53
   + 72 x_23 * x_61 + 58 x_23 * x_67 + 92 x_23 * x_74 + 92 x_23 * x_76
   + 96 x_23 * x_77 + 8 x_23 * x_79 + 94 x_23 * x_82 + 52 x_23 * x_87
   + 56 x_23 * x_90 + 36 x_23 * x_99 + 22 x_24 * x_27 + 20 x_24 * x_30
   + 70 x_24 * x_34 + 56 x_24 * x_36 + 42 x_24 * x_42 + 52 x_24 * x_43
   + 26 x_24 * x_45 + 20 x_24 * x_48 + 84 x_24 * x_50 + 46 x_24 * x_58
   + 4 x_24 * x_59 + 66 x_24 * x_61 + 42 x_24 * x_67 + 70 x_24 * x_69
   + 8 x_24 * x_72 + 20 x_24 * x_75 + 24 x_24 * x_85 + 50 x_24 * x_95
   + 24 x_25 * x_34 + 6 x_25 * x_39 + 64 x_25 * x_42 + 78 x_25 * x_44
   + 26 x_25 * x_45 + 82 x_25 * x_46 + 22 x_25 * x_47 + 58 x_25 * x_48
   + 18 x_25 * x_49 + 88 x_25 * x_59 + 96 x_25 * x_61 + 62 x_25 * x_62
   + 20 x_25 * x_63 + 80 x_25 * x_67 + 32 x_25 * x_73 + 34 x_25 * x_79
   + 72 x_25 * x_83 + 8 x_25 * x_85 + 32 x_25 * x_86 + 10 x_25 * x_88
   + 4 x_25 * x_90 + 32 x_25 * x_91 + 38 x_25 * x_98 + 44 x_25 * x_100
   + 24 x_26 * x_35 + 96 x_26 * x_38 + 38 x_26 * x_39 + 46 x_26 * x_47
   + 18 x_26 * x_51 + 94 x_26 * x_57 + 40 x_26 * x_60 + 64 x_26 * x_61
   + 6 x_26 * x_65 + 12 x_26 * x_67 + 6 x_26 * x_70 + 76 x_26 * x_78
   + 46 x_26 * x_79 + 48 x_26 * x_81 + 58 x_26 * x_86 + 30 x_26 * x_94
   + 6 x_26 * x_98 + 42 x_26 * x_99 + 6 x_27 * x_29 + 6 x_27 * x_35
   + 52 x_27 * x_38 + 24 x_27 * x_40 + 66 x_27 * x_44 + 20 x_27 * x_56
   + 48 x_27 * x_59 + 24 x_27 * x_68 + 42 x_27 * x_69 + 84 x_27 * x_70
   + 86 x_27 * x_73 + 58 x_27 * x_75 + 70 x_27 * x_82 + 42 x_27 * x_85
   + 66 x_27 * x_94 + 44 x_27 * x_96 + 22 x_27 * x_100 + 44 x_28 * x_29
   + 78 x_28 * x_33 + 26 x_28 * x_34 + 20 x_28 * x_37 + 48 x_28 * x_38
   + 26 x_28 * x_39 + 16 x_28 * x_52 + 62 x_28 * x_56 + 34 x_28 * x_65
   + 76 x_28 * x_66 + 66 x_28 * x_67 + 14 x_28 * x_69 + 78 x_28 * x_74
   + 88 x_28 * x_76 + 76 x_28 * x_77 + 14 x_28 * x_78 + 74 x_28 * x_79
   + 84 x_28 * x_81 + 86 x_28 * x_83 + 18 x_28 * x_90 + 74 x_28 * x_91
   + 54 x_28 * x_94 + 24 x_28 * x_96 + 32 x_28 * x_98 + 88 x_28 * x_99
   + 96 x_29 * x_31 + 58 x_29 * x_32 + 68 x_29 * x_35 + 2 x_29 * x_38
   + 26 x_29 * x_39 + 8 x_29 * x_43 + 54 x_29 * x_46 + 12 x_29 * x_49
   + 26 x_29 * x_53 + 30 x_29 * x_55 + 12 x_29 * x_59 + 10 x_29 * x_68
   + 10 x_29 * x_75 + 28 x_29 * x_76 + 42 x_29 * x_79 + 60 x_29 * x_81
   + 26 x_29 * x_90 + 50 x_29 * x_91 + 64 x_29 * x_95 + 10 x_30 * x_31
   + 18 x_30 * x_37 + 32 x_30 * x_42 + 34 x_30 * x_49 + 26 x_30 * x_50
   + 28 x_30 * x_53 + 40 x_30 * x_59 + 86 x_30 * x_69 + 38 x_30 * x_75
   + 66 x_30 * x_79 + 30 x_30 * x_80 + 42 x_30 * x_82 + 96 x_30 * x_92
   + 40 x_30 * x_94 + 68 x_30 * x_95 + 30 x_30 * x_99 + 56 x_30 * x_100
   + 28 x_31 * x_34 + 98 x_31 * x_36 + 54 x_31 * x_38 + 54 x_31 * x_39
   + 54 x_31 * x_43 + 78 x_31 * x_47 + 64 x_31 * x_54 + 36 x_31 * x_59
   + 16 x_31 * x_65 + 40 x_31 * x_67 + 4 x_31 * x_68 + 70 x_31 * x_71
   + 74 x_31 * x_80 + 94 x_31 * x_81 + 82 x_31 * x_97 + 2 x_31 * x_98
   + 80 x_32 * x_34 + 52 x_32 * x_35 + 98 x_32 * x_40 + 62 x_32 * x_43
   + 72 x_32 * x_44 + 74 x_32 * x_48 + 74 x_32 * x_49 + 80 x_32 * x_52
   + 32 x_32 * x_55 + 82 x_32 * x_60 + 18 x_32 * x_64 + 14 x_32 * x_65
   + 44 x_32 * x_67 + 32 x_32 * x_70 + 84 x_32 * x_71 + 28 x_32 * x_72
   + 66 x_32 * x_75 + 64 x_32 * x_78 + 84 x_32 * x_80 + 86 x_32 * x_81
   + 16 x_32 * x_82 + 70 x_32 * x_85 + 4 x_32 * x_91 + 4 x_32 * x_96
   + 30 x_32 * x_97 + 48 x_32 * x_99 + 60 x_33 * x_36 + 82 x_33 * x_43
   + 36 x_33 * x_44 + 44 x_33 * x_49 + 74 x_33 * x_51 + 64 x_33 * x_52
   + 38 x_33 * x_54 + 74 x_33 * x_60 + 42 x_33 * x_61 + 24 x_33 * x_66
   + 82 x_33 * x_71 + 72 x_33 * x_75 + 10 x_33 * x_76 + 48 x_33 * x_80
   + 24 x_33 * x_82 + 50 x_33 * x_83 + 78 x_33 * x_94 + 12 x_33 * x_96
   + 48 x_34 * x_51 + 12 x_34 * x_53 + 70 x_34 * x_55 + 84 x_34 * x_66
   + 60 x_34 * x_67 + 92 x_34 * x_71 + 44 x_34 * x_72 + 24 x_34 * x_75
   + 68 x_34 * x_77 + 98 x_34 * x_86 + 66 x_34 * x_87 + 24 x_34 * x_93
   + 96 x_34 * x_100 + 88 x_35 * x_37 + 4 x_35 * x_39 + 2 x_35 * x_42
   + 80 x_35 * x_49 + 42 x_35 * x_51 + 2 x_35 * x_54 + 80 x_35 * x_55
   + 38 x_35 * x_68 + 12 x_35 * x_94 + 92 x_36 * x_41 + 72 x_36 * x_42
   + 2 x_36 * x_47 + 66 x_36 * x_56 + 78 x_36 * x_57 + 10 x_36 * x_61
   + 28 x_36 * x_62 + 24 x_36 * x_66 + 28 x_36 * x_80 + 58 x_36 * x_81
   + 46 x_36 * x_82 + 86 x_36 * x_85 + 98 x_36 * x_87 + 40 x_36 * x_89
   + 56 x_36 * x_92 + 22 x_36 * x_94 + 80 x_36 * x_100 + 32 x_37 * x_39
   + 42 x_37 * x_49 + 22 x_37 * x_56 + 60 x_37 * x_68 + 42 x_37 * x_70
   + 100 x_37 * x_78 + 92 x_37 * x_79 + 72 x_37 * x_81 + 12 x_37 * x_89
   + 72 x_37 * x_91 + 30 x_37 * x_96 + 76 x_37 * x_99 + 42 x_37 * x_100
   + 64 x_38 * x_44 + 18 x_38 * x_52 + 98 x_38 * x_56 + 58 x_38 * x_59
   + 22 x_38 * x_62 + 22 x_38 * x_63 + 68 x_38 * x_65 + 2 x_38 * x_67
   + 58 x_38 * x_73 + 46 x_38 * x_74 + 68 x_38 * x_75 + 4 x_38 * x_79
   + 88 x_38 * x_82 + 94 x_38 * x_86 + 80 x_38 * x_88 + 16 x_38 * x_92
   + 58 x_38 * x_95 + 92 x_38 * x_97 + 88 x_38 * x_98 + 76 x_39 * x_42
   + 34 x_39 * x_49 + 56 x_39 * x_57 + 8 x_39 * x_60 + 64 x_39 * x_72
   + 32 x_39 * x_73 + 46 x_39 * x_78 + 84 x_39 * x_80 + 56 x_39 * x_93
   + 20 x_39 * x_94 + 74 x_39 * x_95 + 98 x_39 * x_98 + 20 x_40 * x_43
   + 26 x_40 * x_46 + 74 x_40 * x_48 + 18 x_40 * x_49 + 72 x_40 * x_50
   + 28 x_40 * x_51 + 42 x_40 * x_58 + 70 x_40 * x_60 + 70 x_40 * x_65
   + 78 x_40 * x_68 + 68 x_40 * x_70 + 30 x_40 * x_75 + 64 x_40 * x_76
   + 12 x_40 * x_78 + 60 x_40 * x_80 + 4 x_40 * x_82 + 72 x_40 * x_87
   + 4 x_40 * x_89 + 56 x_40 * x_90 + 88 x_41 * x_48 + 98 x_41 * x_65
   + 70 x_41 * x_67 + 60 x_41 * x_72 + 62 x_41 * x_77 + 88 x_41 * x_87
   + 14 x_41 * x_88 + 20 x_41 * x_91 + 98 x_41 * x_94 + 8 x_41 * x_100
   + 100 x_42 * x_43 + 8 x_42 * x_44 + 94 x_42 * x_46 + 20 x_42 * x_55
   + 10 x_42 * x_59 + 10 x_42 * x_60 + 30 x_42 * x_64 + 24 x_42 * x_72
   + 36 x_42 * x_89 + 90 x_42 * x_95 + 92 x_42 * x_96 + 26 x_42 * x_97
   + 68 x_42 * x_98 + 68 x_43 * x_50 + 88 x_43 * x_52 + 82 x_43 * x_53
   + 82 x_43 * x_54 + 36 x_43 * x_56 + 48 x_43 * x_57 + 80 x_43 * x_64
   + 74 x_43 * x_71 + 38 x_43 * x_77 + 34 x_43 * x_84 + 36 x_43 * x_94
   + 94 x_44 * x_48 + 4 x_44 * x_54 + 66 x_44 * x_55 + 46 x_44 * x_58
   + 38 x_44 * x_60 + 32 x_44 * x_70 + 92 x_44 * x_71 + 90 x_44 * x_75
   + 78 x_44 * x_84 + 48 x_44 * x_87 + 14 x_44 * x_89 + 78 x_44 * x_90
   + 90 x_44 * x_91 + 22 x_44 * x_97 + 56 x_45 * x_47 + 62 x_45 * x_49
   + 98 x_45 * x_54 + 84 x_45 * x_57 + 96 x_45 * x_63 + 10 x_45 * x_65
   + 64 x_45 * x_66 + 22 x_45 * x_68 + 56 x_45 * x_72 + 64 x_45 * x_74
   + 32 x_45 * x_78 + 36 x_45 * x_83 + 54 x_45 * x_85 + 20 x_45 * x_89
   + 66 x_45 * x_95 + 100 x_45 * x_97 + 32 x_45 * x_98 + 2 x_46 * x_47
   + 84 x_46 * x_49 + 70 x_46 * x_50 + 88 x_46 * x_53 + 58 x_46 * x_54
   + 32 x_46 * x_60 + 14 x_46 * x_64 + 92 x_46 * x_65 + 30 x_46 * x_69
   + 14 x_46 * x_72 + 8 x_46 * x_73 + 58 x_46 * x_74 + 92 x_46 * x_79
   + 16 x_46 * x_84 + 84 x_46 * x_85 + 56 x_46 * x_89 + 90 x_46 * x_90
   + 10 x_46 * x_93 + 32 x_46 * x_95 + 48 x_46 * x_99 + 90 x_46 * x_100
   + 14 x_47 * x_49 + 10 x_47 * x_51 + 54 x_47 * x_55 + 24 x_47 * x_56
   + 16 x_47 * x_59 + 52 x_47 * x_66 + 92 x_47 * x_70 + 68 x_47 * x_71
   + 52 x_47 * x_72 + 56 x_47 * x_80 + 8 x_47 * x_81 + 80 x_47 * x_83
   + 16 x_47 * x_88 + 26 x_48 * x_54 + 86 x_48 * x_60 + 52 x_48 * x_68
   + 70 x_48 * x_69 + 14 x_48 * x_80 + 48 x_48 * x_82 + 72 x_48 * x_92
   + 48 x_48 * x_95 + 92 x_48 * x_96 + 10 x_48 * x_97 + 32 x_49 * x_52
   + 36 x_49 * x_55 + 36 x_49 * x_62 + 38 x_49 * x_65 + 68 x_49 * x_67
   + 100 x_49 * x_70 + 94 x_49 * x_73 + 18 x_49 * x_74 + 22 x_49 * x_79
   + 30 x_49 * x_82 + 26 x_49 * x_83 + 90 x_49 * x_92 + 12 x_49 * x_93
   + 50 x_49 * x_99 + 96 x_50 * x_52 + 20 x_50 * x_54 + 54 x_50 * x_56
   + 52 x_50 * x_59 + 74 x_50 * x_61 + 78 x_50 * x_71 + 14 x_50 * x_74
   + 66 x_50 * x_77 + 4 x_50 * x_85 + 94 x_50 * x_88 + 48 x_50 * x_90
   + 16 x_50 * x_97 + 84 x_51 * x_63 + 12 x_51 * x_66 + 48 x_51 * x_69
   + 66 x_51 * x_75 + 44 x_51 * x_79 + 48 x_51 * x_84 + 64 x_51 * x_88
   + 32 x_51 * x_94 + 60 x_51 * x_95 + 72 x_51 * x_96 + 78 x_51 * x_100
   + 52 x_52 * x_60 + 8 x_52 * x_61 + 92 x_52 * x_62 + 18 x_52 * x_79
   + 58 x_52 * x_83 + 98 x_52 * x_85 + 94 x_52 * x_88 + 24 x_52 * x_90
   + 50 x_52 * x_91 + 32 x_52 * x_94 + 34 x_52 * x_97 + 4 x_52 * x_100
   + 64 x_53 * x_54 + 46 x_53 * x_55 + 40 x_53 * x_59 + 96 x_53 * x_64
   + 64 x_53 * x_66 + 92 x_53 * x_71 + 40 x_53 * x_73 + 6 x_53 * x_83
   + 68 x_53 * x_87 + 42 x_53 * x_92 + 82 x_53 * x_97 + 24 x_53 * x_100
   + 32 x_54 * x_55 + 74 x_54 * x_56 + 96 x_54 * x_57 + 86 x_54 * x_61
   + 82 x_54 * x_73 + 24 x_54 * x_77 + 74 x_54 * x_80 + 16 x_54 * x_81
   + 28 x_54 * x_88 + 86 x_54 * x_94 + 88 x_54 * x_97 + 100 x_54 * x_100
   + 6 x_55 * x_60 + 90 x_55 * x_62 + 4 x_55 * x_71 + 14 x_55 * x_72
   + 6 x_55 * x_74 + 92 x_55 * x_79 + 84 x_55 * x_88 + 90 x_55 * x_97
   + 24 x_56 * x_60 + 84 x_56 * x_66 + 98 x_56 * x_76 + 96 x_56 * x_78
   + 26 x_56 * x_90 + 6 x_56 * x_93 + 50 x_56 * x_94 + 92 x_56 * x_100
   + 82 x_57 * x_58 + 36 x_57 * x_59 + 80 x_57 * x_60 + 80 x_57 * x_62
   + 84 x_57 * x_68 + 68 x_57 * x_69 + 58 x_57 * x_70 + 66 x_57 * x_75
   + 26 x_57 * x_78 + 50 x_57 * x_85 + 76 x_57 * x_86 + 74 x_57 * x_88
   + 24 x_57 * x_89 + 62 x_57 * x_96 + 78 x_57 * x_100 + 60 x_58 * x_62
   + 72 x_58 * x_66 + 10 x_58 * x_68 + 38 x_58 * x_71 + 96 x_58 * x_72
   + 92 x_58 * x_76 + 12 x_58 * x_77 + 32 x_58 * x_83 + 32 x_58 * x_91
   + 86 x_58 * x_93 + 26 x_58 * x_97 + 64 x_59 * x_66 + 36 x_59 * x_73
   + 76 x_59 * x_75 + 72 x_59 * x_80 + 52 x_59 * x_85 + 96 x_59 * x_91
   + 32 x_59 * x_94 + 36 x_59 * x_95 + 48 x_59 * x_96 + 30 x_60 * x_67
   + 70 x_60 * x_71 + 30 x_60 * x_83 + 74 x_60 * x_95 + 4 x_61 * x_64
   + 48 x_61 * x_67 + 16 x_61 * x_74 + 80 x_61 * x_76 + 20 x_61 * x_80
   + 100 x_61 * x_83 + 100 x_61 * x_84 + 44 x_61 * x_87 + 50 x_61 * x_88
   + 50 x_61 * x_90 + 42 x_61 * x_94 + 92 x_61 * x_99 + 54 x_61 * x_100
   + 22 x_62 * x_65 + 100 x_62 * x_67 + 42 x_62 * x_68 + 40 x_62 * x_69
   + 40 x_62 * x_71 + 74 x_62 * x_73 + 40 x_62 * x_79 + 60 x_62 * x_86
   + 100 x_62 * x_88 + 74 x_62 * x_93 + 36 x_62 * x_94 + 48 x_63 * x_64
   + 8 x_63 * x_65 + 48 x_63 * x_70 + 12 x_63 * x_72 + 66 x_63 * x_77
   + 92 x_63 * x_80 + 60 x_63 * x_87 + 62 x_63 * x_89 + 20 x_63 * x_90
   + 48 x_63 * x_91 + 46 x_63 * x_92 + 30 x_63 * x_93 + 26 x_63 * x_100
   + 72 x_64 * x_68 + 34 x_64 * x_71 + 38 x_64 * x_72 + 26 x_64 * x_80
   + 60 x_64 * x_84 + 50 x_64 * x_85 + 34 x_64 * x_86 + 94 x_64 * x_88
   + 36 x_64 * x_95 + 24 x_64 * x_98 + 4 x_64 * x_100 + 98 x_65 * x_67
   + 82 x_65 * x_72 + 100 x_65 * x_85 + 54 x_65 * x_87 + 66 x_65 * x_94
   + 30 x_65 * x_95 + 6 x_65 * x_97 + 88 x_65 * x_98 + 66 x_65 * x_99
   + 36 x_66 * x_73 + 8 x_66 * x_76 + 94 x_66 * x_81 + 90 x_66 * x_85
   + 14 x_66 * x_95 + 58 x_67 * x_71 + 32 x_67 * x_79 + 48 x_67 * x_88
   + 60 x_67 * x_92 + 24 x_67 * x_93 + 54 x_67 * x_94 + 22 x_68 * x_71
   + 64 x_68 * x_72 + 40 x_68 * x_73 + 46 x_68 * x_75 + 8 x_68 * x_84
   + 58 x_68 * x_87 + 2 x_68 * x_90 + 64 x_68 * x_92 + 82 x_68 * x_95
   + 26 x_68 * x_100 + 96 x_69 * x_70 + 54 x_69 * x_75 + 100 x_69 * x_78
   + 16 x_69 * x_88 + 2 x_69 * x_89 + 22 x_69 * x_90 + 98 x_69 * x_97
   + 60 x_70 * x_72 + 24 x_70 * x_75 + 28 x_70 * x_78 + 98 x_70 * x_81
   + 2 x_70 * x_86 + 34 x_70 * x_87 + 88 x_70 * x_89 + 72 x_70 * x_92
   + 60 x_70 * x_96 + 16 x_70 * x_97 + 76 x_70 * x_100 + 54 x_71 * x_74
   + 22 x_71 * x_83 + 50 x_71 * x_86 + 58 x_71 * x_98 + 22 x_72 * x_80
   + 70 x_72 * x_95 + 54 x_72 * x_96 + 14 x_72 * x_98 + 78 x_72 * x_99
   + 74 x_73 * x_79 + 22 x_73 * x_85 + 86 x_73 * x_91 + 66 x_73 * x_92
   + 8 x_73 * x_94 + 74 x_73 * x_98 + 76 x_73 * x_100 + 56 x_74 * x_75
   + 24 x_74 * x_80 + 62 x_74 * x_85 + 64 x_74 * x_89 + 4 x_74 * x_91
   + 38 x_74 * x_95 + 96 x_75 * x_77 + 98 x_75 * x_87 + 80 x_75 * x_94
   + 98 x_75 * x_95 + 24 x_75 * x_97 + 66 x_76 * x_77 + 22 x_76 * x_78
   + 90 x_76 * x_81 + 6 x_76 * x_86 + 18 x_76 * x_92 + 98 x_76 * x_99
   + 44 x_77 * x_79 + 10 x_77 * x_82 + 36 x_77 * x_85 + 14 x_77 * x_89
   + 66 x_77 * x_90 + 6 x_77 * x_96 + 44 x_78 * x_85 + 78 x_78 * x_88
   + 8 x_78 * x_99 + 16 x_79 * x_83 + 32 x_79 * x_84 + 48 x_79 * x_88
   + 96 x_79 * x_90 + 10 x_79 * x_95 + 58 x_79 * x_98 + 6 x_80 * x_83
   + 92 x_80 * x_84 + 16 x_80 * x_85 + 30 x_80 * x_86 + 84 x_80 * x_89
   + 50 x_80 * x_93 + 90 x_81 * x_84 + 52 x_81 * x_88 + 18 x_81 * x_89
   + 44 x_81 * x_91 + 34 x_81 * x_93 + 96 x_81 * x_97 + 54 x_81 * x_99
   + 2 x_82 * x_84 + 30 x_82 * x_85 + 44 x_82 * x_86 + 80 x_82 * x_87
   + 90 x_82 * x_90 + 84 x_82 * x_91 + 52 x_82 * x_95 + 66 x_82 * x_96
   + 56 x_83 * x_84 + 14 x_83 * x_85 + 62 x_84 * x_93 + 4 x_84 * x_96
   + 68 x_85 * x_87 + 44 x_85 * x_98 + 26 x_85 * x_99 + 24 x_86 * x_90
   + 16 x_86 * x_93 + 70 x_87 * x_90 + 44 x_87 * x_92 + 54 x_87 * x_97
   + 4 x_87 * x_100 + 100 x_88 * x_90 + 54 x_88 * x_95 + 94 x_88 * x_99
   + 22 x_89 * x_93 + 16 x_89 * x_98 + 36 x_90 * x_91 + 30 x_90 * x_92
   + 78 x_90 * x_93 + 52 x_90 * x_96 + 20 x_90 * x_97 + 48 x_91 * x_92
   + 72 x_91 * x_96 + 12 x_91 * x_98 + 6 x_91 * x_99 + 72 x_91 * x_100
   + 62 x_92 * x_96 + 56 x_92 * x_97 + 88 x_92 * x_100 + 80 x_93 * x_95
   + 72 x_93 * x_98 + 62 x_93 * x_99 + 6 x_94 * x_95 + 12 x_94 * x_96
   + 12 x_94 * x_97 + 38 x_94 * x_98 + 90 x_94 * x_100 + 4 x_95 * x_98
   ] / 2 
Subject To
 R0: 16 x_1 + 13 x_2 + 11 x_3 + 5 x_4 + 18 x_5 + 24 x_6 + 24 x_7 + 7 x_8
   + 24 x_9 + 11 x_10 + x_11 + 8 x_12 + 5 x_13 + 17 x_14 + 3 x_15 + 3 x_16
   + 5 x_17 + 22 x_18 + 17 x_19 + 20 x_20 + 9 x_21 + 5 x_22 + 3 x_23
   + 5 x_24 + 11 x_25 + 16 x_26 + 10 x_27 + 15 x_28 + 7 x_29 + 17 x_30
   + 15 x_31 + 7 x_32 + 9 x_33 + 2 x_34 + x_35 + 22 x_36 + 15 x_37
   + 20 x_38 + 22 x_39 + 23 x_40 + 9 x_41 + 14 x_42 + 12 x_43 + 10 x_44
   + 7 x_45 + 5 x_46 + 13 x_47 + 10 x_48 + 18 x_49 + 15 x_50 + 18 x_51
   + 16 x_52 + 16 x_53 + 3 x_54 + 13 x_55 + 10 x_56 + 23 x_57 + 9 x_58
   + 14 x_59 + 14 x_60 + 15 x_61 + 22 x_62 + 5 x_63 + 21 x_64 + 20 x_65
   + 11 x_66 + 13 x_67 + 24 x_68 + 21 x_69 + 6 x_70 + 25 x_71 + 2 x_72
   + 21 x_73 + x_74 + 24 x_75 + 21 x_76 + x_77 + 14 x_78 + 2 x_79 + 19 x_80
   + 5 x_81 + 11 x_82 + 5 x_83 + 3 x_84 + 24 x_85 + 13 x_86 + 7 x_87
   + 21 x_88 + 14 x_89 + 13 x_90 + 8 x_91 + 4 x_92 + 24 x_93 + 18 x_94
   + 5 x_95 + 8 x_96 + 14 x_97 + 10 x_98 + x_99 + 23 x_100 <= 573
Bounds
Binaries
 x_1 x_2 x_3 x_4 x_5 x_6 x_7 x_8 x_9 x_10 x_11 x_12 x_13 x_14 x_15 x_16
 x_17 x_18 x_19 x_20 x_21 x_22 x_23 x_24 x_25 x_26 x_27 x_28 x_29 x_30 x_31
 x_32 x_33 x_34 x_35 x_36 x_37 x_38 x_39 x_40 x_41 x_42 x_43 x_44 x_45 x_46
 x_47 x_48 x_49 x_50 x_51 x_52 x_53 x_54 x_55 x_56 x_57 x_58 x_59 x_60 x_61
 x_62 x_63 x_64 x_65 x_66 x_67 x_68 x_69 x_70 x_71 x_72 x_73 x_74 x_75 x_76
 x_77 x_78 x_79 x_80 x_81 x_82 x_83 x_84 x_85 x_86 x_87 x_88 x_89 x_90 x_91
 x_92 x_93 x_94 x_95 x_96 x_97 x_98 x_99 x_100
End
